//Number of items      		
164
//Bin Capacity      
1000
//Known Best Solution  		
76
//Weight of Item
    1000	 1
     798         1
     790         2
     785         1
     779         1
     776         1
     774         1
     769         1
     766         1
     765         1
     764         1
     759         1
     755         1
     752         1
     748         1
     746         1
     738         1
     734         1
     731         1
     713         1
     710         3
     703         1
     699         1
     696         1
     691         1
     690         1
     686         1
     671         1
     670         1
     669         1
     666         1
     663         1
     660         1
     657         1
     647         1
     646         1
     643         1
     638         1
     632         1
     629         1
     623         1
     613         1
     603         1
     602         1
     601         1
     598         1
     597         1
     593         1
     588         1
     574         1
     566         1
     562         1
     554         1
     553         2
     551         1
     541         1
     535         1
     532         1
     529         1
     528         1
     521         1
     519         1
     501         1
     498         1
     483         1
     480         1
     478         1
     477         1
     467         1
     466         1
     464         2
     462         1
     458         1
     456         1
     447         1
     444         1
     441         1
     440         1
     436         2
     427         1
     426         1
     425         2
     424         1
     423         1
     418         1
     413         2
     402         1
     398         1
     389         1
     383         1
     382         1
     379         2
     378         1
     377         2
     372         1
     367         1
     365         1
     360         1
     359         1
     358         1
     353         1
     344         1
     339         1
     336         1
     331         1
     319         1
     318         1
     317         1
     316         1
     299         1
     294         1
     284         1
     283         1
     278         1
     276         1
     275         1
     266         1
     258         1
     255         1
     254         1
     252         2
     247         1
     242         1
     235         1
     232         1
     231         1
     229         1
     228         1
     222         1
     213         1
     212         1
     207         1
     205         1
     196         1
     195         2
     192         1
     184         1
     183         1
     181         1
     164         1
     158         1
     155         1
     149         1
     141         1
     138         1
     136         1
     134         1
     132         1
     124         1
      97         1
      87         2
      83         1
      76         1
      72         1
      71         3
      70         2
      69         1
      58         1
      53         1
      51         1
      38         1
      33         1
      31         1
      28         1
       5         1